p cnf 386 460
-7 12 6 21 22 0
-7 12 6 21 -22 0
-7 12 6 -21 23 0
-7 12 6 -21 -23 0
11 -10 2 24 25 0
11 -10 2 24 -25 0
11 -10 2 -24 26 0
11 -10 2 -24 -26 0
4 -14 -5 27 28 0
4 -14 -5 27 -28 0
4 -14 -5 -27 29 0
4 -14 -5 -27 -29 0
1 -14 7 30 31 0
1 -14 7 30 -31 0
1 -14 7 -30 32 0
1 -14 7 -30 -32 0
-19 12 18 33 34 0
-19 12 18 33 -34 0
-19 12 18 -33 35 0
-19 12 18 -33 -35 0
-20 13 -10 36 37 0
-20 13 -10 36 -37 0
-20 13 -10 -36 38 0
-20 13 -10 -36 -38 0
10 20 -11 39 40 0
10 20 -11 39 -40 0
10 20 -11 -39 41 0
10 20 -11 -39 -41 0
-8 -20 -19 42 43 0
-8 -20 -19 42 -43 0
-8 -20 -19 -42 44 0
-8 -20 -19 -42 -44 0
-13 10 3 45 46 0
-13 10 3 45 -46 0
-13 10 3 -45 47 0
-13 10 3 -45 -47 0
15 1 -8 48 49 0
15 1 -8 48 -49 0
15 1 -8 -48 50 0
15 1 -8 -48 -50 0
7 -15 -2 51 52 0
7 -15 -2 51 -52 0
7 -15 -2 -51 53 0
7 -15 -2 -51 -53 0
15 5 19 54 55 0
15 5 19 54 -55 0
15 5 19 -54 56 0
15 5 19 -54 -56 0
-19 16 -3 57 58 0
-19 16 -3 57 -58 0
-19 16 -3 -57 59 0
-19 16 -3 -57 -59 0
-14 -2 -9 60 61 0
-14 -2 -9 60 -61 0
-14 -2 -9 -60 62 0
-14 -2 -9 -60 -62 0
-6 -13 -18 63 64 0
-6 -13 -18 63 -64 0
-6 -13 -18 -63 65 0
-6 -13 -18 -63 -65 0
-6 14 8 66 67 0
-6 14 8 66 -67 0
-6 14 8 -66 68 0
-6 14 8 -66 -68 0
5 14 10 69 70 0
5 14 10 69 -70 0
5 14 10 -69 71 0
5 14 10 -69 -71 0
19 11 -5 72 73 0
19 11 -5 72 -73 0
19 11 -5 -72 74 0
19 11 -5 -72 -74 0
8 -19 -14 75 76 0
8 -19 -14 75 -76 0
8 -19 -14 -75 77 0
8 -19 -14 -75 -77 0
-19 -14 -13 78 79 0
-19 -14 -13 78 -79 0
-19 -14 -13 -78 80 0
-19 -14 -13 -78 -80 0
-4 -7 -5 81 82 0
-4 -7 -5 81 -82 0
-4 -7 -5 -81 83 0
-4 -7 -5 -81 -83 0
20 -9 16 84 85 0
20 -9 16 84 -85 0
20 -9 16 -84 86 0
20 -9 16 -84 -86 0
16 -10 14 87 88 0
16 -10 14 87 -88 0
16 -10 14 -87 89 0
16 -10 14 -87 -89 0
-18 4 -2 90 91 0
-18 4 -2 90 -91 0
-18 4 -2 -90 92 0
-18 4 -2 -90 -92 0
11 9 12 93 94 0
11 9 12 93 -94 0
11 9 12 -93 95 0
11 9 12 -93 -95 0
1 11 -6 96 97 0
1 11 -6 96 -97 0
1 11 -6 -96 98 0
1 11 -6 -96 -98 0
-5 16 -12 99 100 0
-5 16 -12 99 -100 0
-5 16 -12 -99 101 0
-5 16 -12 -99 -101 0
-9 -16 10 102 103 0
-9 -16 10 102 -103 0
-9 -16 10 -102 104 0
-9 -16 10 -102 -104 0
16 -15 19 105 106 0
16 -15 19 105 -106 0
16 -15 19 -105 107 0
16 -15 19 -105 -107 0
14 4 -12 108 109 0
14 4 -12 108 -109 0
14 4 -12 -108 110 0
14 4 -12 -108 -110 0
11 -19 -16 111 112 0
11 -19 -16 111 -112 0
11 -19 -16 -111 113 0
11 -19 -16 -111 -113 0
20 8 13 114 115 0
20 8 13 114 -115 0
20 8 13 -114 116 0
20 8 13 -114 -116 0
-3 12 -11 117 118 0
-3 12 -11 117 -118 0
-3 12 -11 -117 119 0
-3 12 -11 -117 -119 0
-10 -19 16 120 121 0
-10 -19 16 120 -121 0
-10 -19 16 -120 122 0
-10 -19 16 -120 -122 0
10 15 17 123 124 0
10 15 17 123 -124 0
10 15 17 -123 125 0
10 15 17 -123 -125 0
1 8 -16 126 127 0
1 8 -16 126 -127 0
1 8 -16 -126 128 0
1 8 -16 -126 -128 0
-6 -11 9 129 130 0
-6 -11 9 129 -130 0
-6 -11 9 -129 131 0
-6 -11 9 -129 -131 0
14 4 -20 132 133 0
14 4 -20 132 -133 0
14 4 -20 -132 134 0
14 4 -20 -132 -134 0
-18 -6 -13 135 136 0
-18 -6 -13 135 -136 0
-18 -6 -13 -135 137 0
-18 -6 -13 -135 -137 0
-3 -12 14 138 139 0
-3 -12 14 138 -139 0
-3 -12 14 -138 140 0
-3 -12 14 -138 -140 0
-14 -12 10 141 142 0
-14 -12 10 141 -142 0
-14 -12 10 -141 143 0
-14 -12 10 -141 -143 0
-5 13 -17 144 145 0
-5 13 -17 144 -145 0
-5 13 -17 -144 146 0
-5 13 -17 -144 -146 0
1 -2 -19 147 148 0
1 -2 -19 147 -148 0
1 -2 -19 -147 149 0
1 -2 -19 -147 -149 0
-14 12 -9 150 151 0
-14 12 -9 150 -151 0
-14 12 -9 -150 152 0
-14 12 -9 -150 -152 0
-2 3 -5 153 154 0
-2 3 -5 153 -154 0
-2 3 -5 -153 155 0
-2 3 -5 -153 -155 0
9 -18 -7 156 157 0
9 -18 -7 156 -157 0
9 -18 -7 -156 158 0
9 -18 -7 -156 -158 0
13 -16 4 159 160 0
13 -16 4 159 -160 0
13 -16 4 -159 161 0
13 -16 4 -159 -161 0
-20 13 8 162 163 0
-20 13 8 162 -163 0
-20 13 8 -162 164 0
-20 13 8 -162 -164 0
14 15 18 165 166 0
14 15 18 165 -166 0
14 15 18 -165 167 0
14 15 18 -165 -167 0
-14 7 -9 168 169 0
-14 7 -9 168 -169 0
-14 7 -9 -168 170 0
-14 7 -9 -168 -170 0
15 -9 12 171 172 0
15 -9 12 171 -172 0
15 -9 12 -171 173 0
15 -9 12 -171 -173 0
-12 -9 -19 174 175 0
-12 -9 -19 174 -175 0
-12 -9 -19 -174 176 0
-12 -9 -19 -174 -176 0
1 -17 4 177 178 0
1 -17 4 177 -178 0
1 -17 4 -177 179 0
1 -17 4 -177 -179 0
-15 8 19 180 181 0
-15 8 19 180 -181 0
-15 8 19 -180 182 0
-15 8 19 -180 -182 0
18 4 9 183 184 0
18 4 9 183 -184 0
18 4 9 -183 185 0
18 4 9 -183 -185 0
-1 -16 -19 186 187 0
-1 -16 -19 186 -187 0
-1 -16 -19 -186 188 0
-1 -16 -19 -186 -188 0
-16 9 4 189 190 0
-16 9 4 189 -190 0
-16 9 4 -189 191 0
-16 9 4 -189 -191 0
6 -5 -19 192 193 0
6 -5 -19 192 -193 0
6 -5 -19 -192 194 0
6 -5 -19 -192 -194 0
-13 -7 20 195 196 0
-13 -7 20 195 -196 0
-13 -7 20 -195 197 0
-13 -7 20 -195 -197 0
14 16 -13 198 199 0
14 16 -13 198 -199 0
14 16 -13 -198 200 0
14 16 -13 -198 -200 0
12 -3 10 201 202 0
12 -3 10 201 -202 0
12 -3 10 -201 203 0
12 -3 10 -201 -203 0
5 11 -15 204 205 0
5 11 -15 204 -205 0
5 11 -15 -204 206 0
5 11 -15 -204 -206 0
10 -11 -4 207 208 0
10 -11 -4 207 -208 0
10 -11 -4 -207 209 0
10 -11 -4 -207 -209 0
1 12 3 210 211 0
1 12 3 210 -211 0
1 12 3 -210 212 0
1 12 3 -210 -212 0
11 -16 -17 213 214 0
11 -16 -17 213 -214 0
11 -16 -17 -213 215 0
11 -16 -17 -213 -215 0
16 -9 -1 216 217 0
16 -9 -1 216 -217 0
16 -9 -1 -216 218 0
16 -9 -1 -216 -218 0
11 -4 -7 219 220 0
11 -4 -7 219 -220 0
11 -4 -7 -219 221 0
11 -4 -7 -219 -221 0
4 2 3 222 223 0
4 2 3 222 -223 0
4 2 3 -222 224 0
4 2 3 -222 -224 0
3 -11 -13 225 226 0
3 -11 -13 225 -226 0
3 -11 -13 -225 227 0
3 -11 -13 -225 -227 0
6 2 11 228 229 0
6 2 11 228 -229 0
6 2 11 -228 230 0
6 2 11 -228 -230 0
-1 -17 -6 231 232 0
-1 -17 -6 231 -232 0
-1 -17 -6 -231 233 0
-1 -17 -6 -231 -233 0
19 -4 2 234 235 0
19 -4 2 234 -235 0
19 -4 2 -234 236 0
19 -4 2 -234 -236 0
12 -19 -13 237 238 0
12 -19 -13 237 -238 0
12 -19 -13 -237 239 0
12 -19 -13 -237 -239 0
12 13 1 240 241 0
12 13 1 240 -241 0
12 13 1 -240 242 0
12 13 1 -240 -242 0
5 18 9 243 244 0
5 18 9 243 -244 0
5 18 9 -243 245 0
5 18 9 -243 -245 0
-10 3 -15 246 247 0
-10 3 -15 246 -247 0
-10 3 -15 -246 248 0
-10 3 -15 -246 -248 0
17 10 -14 249 250 0
17 10 -14 249 -250 0
17 10 -14 -249 251 0
17 10 -14 -249 -251 0
-18 4 12 252 253 0
-18 4 12 252 -253 0
-18 4 12 -252 254 0
-18 4 12 -252 -254 0
-11 16 -8 255 256 0
-11 16 -8 255 -256 0
-11 16 -8 -255 257 0
-11 16 -8 -255 -257 0
18 1 -3 258 259 0
18 1 -3 258 -259 0
18 1 -3 -258 260 0
18 1 -3 -258 -260 0
-17 9 1 261 262 0
-17 9 1 261 -262 0
-17 9 1 -261 263 0
-17 9 1 -261 -263 0
3 17 -16 264 265 0
3 17 -16 264 -265 0
3 17 -16 -264 266 0
3 17 -16 -264 -266 0
7 -6 -5 267 268 0
7 -6 -5 267 -268 0
7 -6 -5 -267 269 0
7 -6 -5 -267 -269 0
4 -20 8 270 271 0
4 -20 8 270 -271 0
4 -20 8 -270 272 0
4 -20 8 -270 -272 0
-6 16 13 273 274 0
-6 16 13 273 -274 0
-6 16 13 -273 275 0
-6 16 13 -273 -275 0
1 -7 20 276 277 0
1 -7 20 276 -277 0
1 -7 20 -276 278 0
1 -7 20 -276 -278 0
-9 18 -11 279 280 0
-9 18 -11 279 -280 0
-9 18 -11 -279 281 0
-9 18 -11 -279 -281 0
17 8 4 282 283 0
17 8 4 282 -283 0
17 8 4 -282 284 0
17 8 4 -282 -284 0
9 -11 -12 285 286 0
9 -11 -12 285 -286 0
9 -11 -12 -285 287 0
9 -11 -12 -285 -287 0
17 -9 10 288 289 0
17 -9 10 288 -289 0
17 -9 10 -288 290 0
17 -9 10 -288 -290 0
9 -18 17 291 292 0
9 -18 17 291 -292 0
9 -18 17 -291 293 0
9 -18 17 -291 -293 0
294 295 297 301 309 0
294 295 297 301 -309 0
294 295 297 -301 310 0
294 295 297 -301 -310 0
294 295 -297 302 311 0
294 295 -297 302 -311 0
294 295 -297 -302 312 0
294 295 -297 -302 -312 0
294 -295 298 303 313 0
294 -295 298 303 -313 0
294 -295 298 -303 314 0
294 -295 298 -303 -314 0
294 -295 -298 304 315 0
294 -295 -298 304 -315 0
294 -295 -298 -304 316 0
294 -295 -298 -304 -316 0
-294 296 299 305 317 0
-294 296 299 305 -317 0
-294 296 299 -305 318 0
-294 296 299 -305 -318 0
-294 296 -299 306 319 0
-294 296 -299 306 -319 0
-294 296 -299 -306 320 0
-294 296 -299 -306 -320 0
-294 -296 300 307 321 0
-294 -296 300 307 -321 0
-294 -296 300 -307 322 0
-294 -296 300 -307 -322 0
-294 -296 -300 308 323 0
-294 -296 -300 308 -323 0
-294 -296 -300 -308 324 0
-294 -296 -300 -308 -324 0
325 326 328 332 340 0
325 326 328 332 -340 0
325 326 328 -332 341 0
325 326 328 -332 -341 0
325 326 -328 333 342 0
325 326 -328 333 -342 0
325 326 -328 -333 343 0
325 326 -328 -333 -343 0
325 -326 329 334 344 0
325 -326 329 334 -344 0
325 -326 329 -334 345 0
325 -326 329 -334 -345 0
325 -326 -329 335 346 0
325 -326 -329 335 -346 0
325 -326 -329 -335 347 0
325 -326 -329 -335 -347 0
-325 327 330 336 348 0
-325 327 330 336 -348 0
-325 327 330 -336 349 0
-325 327 330 -336 -349 0
-325 327 -330 337 350 0
-325 327 -330 337 -350 0
-325 327 -330 -337 351 0
-325 327 -330 -337 -351 0
-325 -327 331 338 352 0
-325 -327 331 338 -352 0
-325 -327 331 -338 353 0
-325 -327 331 -338 -353 0
-325 -327 -331 339 354 0
-325 -327 -331 339 -354 0
-325 -327 -331 -339 355 0
-325 -327 -331 -339 -355 0
356 357 359 363 371 0
356 357 359 363 -371 0
356 357 359 -363 372 0
356 357 359 -363 -372 0
356 357 -359 364 373 0
356 357 -359 364 -373 0
356 357 -359 -364 374 0
356 357 -359 -364 -374 0
356 -357 360 365 375 0
356 -357 360 365 -375 0
356 -357 360 -365 376 0
356 -357 360 -365 -376 0
356 -357 -360 366 377 0
356 -357 -360 366 -377 0
356 -357 -360 -366 378 0
356 -357 -360 -366 -378 0
-356 358 361 367 379 0
-356 358 361 367 -379 0
-356 358 361 -367 380 0
-356 358 361 -367 -380 0
-356 358 -361 368 381 0
-356 358 -361 368 -381 0
-356 358 -361 -368 382 0
-356 358 -361 -368 -382 0
-356 -358 362 369 383 0
-356 -358 362 369 -383 0
-356 -358 362 -369 384 0
-356 -358 362 -369 -384 0
-356 -358 -362 370 385 0
-356 -358 -362 370 -385 0
-356 -358 -362 -370 386 0
-356 -358 -362 -370 -386 0

